unknown
(model
; cardinality of BoundSet is 1
(declare-sort BoundSet 0)
; rep: @uc_BoundSet_0
(declare-sort UnboundSet 0)
(define-fun IsNew ((BOUND_VARIABLE_329 BoundSet)) Bool true)
(define-fun IsBetterThan ((BOUND_VARIABLE_341 BoundSet) (BOUND_VARIABLE_342 BoundSet)) Bool false)
)
